TYPE : Vertex Cover
DIMENSION: 34
EDGE_DATA_SECTION:
0 1
0 3
0 4
0 5
0 10
0 12
0 14
0 22
0 31
0 33
1 6
1 9
1 13
1 15
1 17
1 26
1 27
1 29
1 30
2 6
2 9
2 14
2 17
2 19
2 26
3 12
3 14
3 15
3 25
3 32
4 5
4 6
4 7
4 9
4 14
4 16
4 17
4 21
4 29
5 7
5 10
5 16
5 18
5 23
5 24
5 25
5 30
5 33
6 7
6 12
6 15
6 16
6 18
6 23
6 24
6 25
6 33
7 18
7 22
7 23
8 9
8 15
8 16
8 28
8 33
9 10
9 12
9 15
9 16
9 23
9 29
9 32
10 12
10 15
10 23
10 24
10 27
11 12
11 17
11 18
11 19
11 20
11 21
11 24
11 27
12 14
12 18
12 20
12 24
12 25
12 26
12 30
12 31
12 32
12 33
13 19
13 21
13 23
13 28
14 26
15 17
15 19
15 22
15 23
15 25
15 26
15 29
15 31
15 33
16 20
16 25
16 27
16 32
17 25
17 29
17 33
18 23
18 25
18 30
18 33
19 24
19 27
20 23
20 25
20 27
21 25
21 26
21 27
21 33
22 26
22 28
23 24
23 27
23 28
23 31
24 26
24 28
24 29
24 30
25 27
26 32
27 31
28 31
29 31
29 32
31 33
32 33
-1
VERTEX_DEGREE:
10.0 10.0 6.0 6.0 10.0 11.0 12.0 6.0 5.0 11.0 8.0 8.0 16.0 5.0 6.0 15.0 9.0 8.0 9.0 6.0 6.0 7.0 5.0 13.0 11.0 11.0 9.0 10.0 6.0 8.0 5.0 8.0 7.0 11.0
VERTEX_COVER:
0 1 2 3 4 5 7 9 11 12 13 15 16 18 23 24 25 26 27 28 29 33
EOF
